(set-logic HORN)
(declare-fun !inv0 (Int (Array Int Int) (Array Int Int) Bool Int Int ) Bool)
(assert (forall ((N@0 Int)(array2@0 (Array Int Int))(array1@0 (Array Int Int))(equal@0 Bool)(i@0 Int)(j@0 Int)) (=> (and (> |N@0| 0) (= |equal@0| true) (= |i@0| 0) (= |j@0| |N@0|)) (!inv0 |N@0| |array1@0| |array2@0| |equal@0| |i@0| |j@0|))))
(assert (forall ((N@0 Int)(array1@0 (Array Int Int))(array2@0 (Array Int Int))(equal@0 Bool)(i@0 Int)(j@0 Int)) (=> (and (!inv0 |N@0| |array1@0| |array2@0| |equal@0| |i@0| |j@0|) (not (and (<= |i@0| |j@0|) (< |i@0| |N@0|) (> |j@0| 0))) (= |equal@0| true) (not (forall ((k@0 Int)) (=> (and (<= 0 |k@0|) (< |k@0| |N@0|)) (= (select |array1@0| |k@0|) (select |array2@0| |k@0|)))))) false)))
(assert (forall ((N@0 Int)(array1@0 (Array Int Int))(array2@0 (Array Int Int))(equal@0 Bool)(i@0 Int)(j@0 Int)(i@1 Int)(j@1 Int)(equal@1 Bool)) (=> (and (!inv0 |N@0| |array1@0| |array2@0| |equal@1| |i@0| |j@0|) (= |i@1| (+ |i@0| 1)) (= |j@1| (- |j@0| 1)) (or (not (= (select |array1@0| (- |j@0| 1)) (select |array2@0| (- |j@0| 1)))) (not (= (select |array1@0| |i@0|) (select |array2@0| |i@0|)))) (= |equal@0| false) (<= |i@0| |j@0|) (< |i@0| |N@0|) (> |j@0| 0)) (!inv0 |N@0| |array1@0| |array2@0| |equal@0| |i@1| |j@1|))))
(assert (forall ((N@0 Int)(array1@0 (Array Int Int))(array2@0 (Array Int Int))(equal@0 Bool)(i@0 Int)(j@0 Int)(i@1 Int)(j@1 Int)) (=> (and (!inv0 |N@0| |array1@0| |array2@0| |equal@0| |i@0| |j@0|) (= |i@1| (+ |i@0| 1)) (= |j@1| (- |j@0| 1)) (not (or (not (= (select |array1@0| (- |j@0| 1)) (select |array2@0| (- |j@0| 1)))) (not (= (select |array1@0| |i@0|) (select |array2@0| |i@0|))))) (<= |i@0| |j@0|) (< |i@0| |N@0|) (> |j@0| 0)) (!inv0 |N@0| |array1@0| |array2@0| |equal@0| |i@1| |j@1|))))
(check-sat)